# Objective value = 1.2821219999999998e+04
I_0_0 2155
I_0_1 3016
I_0_2 2.6169999999999936e+03
I_0_3 2.6559999999999905e+03
I_0_4 2.2839999999999968e+03
I_0_5 2588
I_0_6 3449
I_1_0 55
I_1_1 0
I_1_2 55
I_1_3 0
I_1_4 55
I_1_5 55
I_1_6 0
I_2_0 198
I_2_1 99
I_2_2 198
I_2_3 9.9000000000000014e+01
I_2_4 198
I_2_5 99
I_2_6 0
I_3_0 92
I_3_1 0
I_3_2 92
I_3_3 0
I_3_4 92
I_3_5 92
I_3_6 0
I_4_0 76
I_4_1 0
I_4_2 76
I_4_3 3.1029055248782457e-12
I_4_4 76.0000000000031
I_4_5 76
I_4_6 0
I_5_0 194
I_5_1 97
I_5_2 6.57944654837593e-12
I_5_3 1.9400000000000657e+02
I_5_4 1.9400000000000003e+02
I_5_5 97
I_5_6 0
I_6_0 22
I_6_1 11
I_6_2 2.1999999999999996e+01
I_6_3 11
I_6_4 2.1999999999999915e+01
I_6_5 1.1000000000000027e+01
I_6_6 3.3750779948604759e-14
I_7_0 142
I_7_1 71
I_7_2 0
I_7_3 142
I_7_4 1.4199999999999977e+02
I_7_5 71
I_7_6 0
I_8_0 116
I_8_1 58
I_8_2 116
I_8_3 58
I_8_4 116
I_8_5 5.8000000000000014e+01
I_8_6 0
I_9_0 68
I_9_1 34
I_9_2 68
I_9_3 34
I_9_4 68
I_9_5 34
I_9_6 0
I_10_0 126
I_10_1 63
I_10_2 0
I_10_3 126
I_10_4 1.2600000000000001e+02
I_10_5 6.3000000000000014e+01
I_10_6 1.0658141036401503e-14
I_11_0 36
I_11_1 0
I_11_2 36
I_11_3 3.5999999999999993e+01
I_11_4 -7.1054273576010019e-15
I_11_5 36
I_11_6 0
I_12_0 83
I_12_1 0
I_12_2 83
I_12_3 8.2999999999999986e+01
I_12_4 7.1054273576010019e-15
I_12_5 8.2999999999999986e+01
I_12_6 0
I_13_0 10
I_13_1 0
I_13_2 10
I_13_3 10
I_13_4 0
I_13_5 9.9999999999999982e+00
I_13_6 0
I_14_0 30
I_14_1 0
I_14_2 30
I_14_3 0
I_14_4 30
I_14_5 30
I_14_6 0
I_15_0 46
I_15_1 0
I_15_2 46
I_15_3 0
I_15_4 46
I_15_5 4.6000000000000007e+01
I_15_6 0
q_1_0_0 0
q_1_0_1 110
q_1_0_2 0
q_1_0_3 110
q_1_0_4 55
q_1_0_5 0
q_1_1_0 0
q_1_1_1 0
q_1_1_2 0
q_1_1_3 0
q_1_1_4 0
q_1_1_5 0
q_2_0_0 0
q_2_0_1 0
q_2_0_2 0
q_2_0_3 0
q_2_0_4 0
q_2_0_5 0
q_2_1_0 0
q_2_1_1 198
q_2_1_2 0
q_2_1_3 198
q_2_1_4 0
q_2_1_5 0
q_3_0_0 0
q_3_0_1 184
q_3_0_2 0
q_3_0_3 184
q_3_0_4 91.9999999999998
q_3_0_5 0
q_3_1_0 0
q_3_1_1 0
q_3_1_2 0
q_3_1_3 0
q_3_1_4 0
q_3_1_5 0
q_4_0_0 0
q_4_0_1 152
q_4_0_2 0
q_4_0_3 152
q_4_0_4 7.5999999999999858e+01
q_4_0_5 0
q_4_1_0 0
q_4_1_1 0
q_4_1_2 3.0979663279140368e-12
q_4_1_3 0
q_4_1_4 -2.9558577807620168e-12
q_4_1_5 0
q_5_0_0 0
q_5_0_1 6.57944654837593e-12
q_5_0_2 291
q_5_0_3 0
q_5_0_4 0
q_5_0_5 0
q_5_1_0 0
q_5_1_1 0
q_5_1_2 0
q_5_1_3 9.6999999999993435e+01
q_5_1_4 0
q_5_1_5 0
q_6_0_0 0
q_6_0_1 0
q_6_0_2 0
q_6_0_3 0
q_6_0_4 1.1368683772161603e-13
q_6_0_5 0
q_6_1_0 0
q_6_1_1 22
q_6_1_2 0
q_6_1_3 2.1999999999999911e+01
q_6_1_4 0
q_6_1_5 0
q_7_0_0 0
q_7_0_1 0
q_7_0_2 5.6843418860808015e-14
q_7_0_3 0
q_7_0_4 0
q_7_0_5 0
q_7_1_0 0
q_7_1_1 0
q_7_1_2 2.1299999999999991e+02
q_7_1_3 7.0999999999999773e+01
q_7_1_4 0
q_7_1_5 0
q_8_0_0 0
q_8_0_1 116
q_8_0_2 0
q_8_0_3 116
q_8_0_4 0
q_8_0_5 0
q_8_1_0 0
q_8_1_1 0
q_8_1_2 0
q_8_1_3 0
q_8_1_4 0
q_8_1_5 0
q_9_0_0 0
q_9_0_1 68
q_9_0_2 0
q_9_0_3 68
q_9_0_4 0
q_9_0_5 0
q_9_1_0 0
q_9_1_1 0
q_9_1_2 0
q_9_1_3 0
q_9_1_4 0
q_9_1_5 0
q_10_0_0 0
q_10_0_1 0
q_10_0_2 0
q_10_0_3 0
q_10_0_4 0
q_10_0_5 0
q_10_1_0 0
q_10_1_1 0
q_10_1_2 189
q_10_1_3 6.3000000000000007e+01
q_10_1_4 0
q_10_1_5 0
q_11_0_0 0
q_11_0_1 0
q_11_0_2 -7.1054273576010019e-15
q_11_0_3 0
q_11_0_4 7.2000000000000014e+01
q_11_0_5 0
q_11_1_0 0
q_11_1_1 72
q_11_1_2 3.6000000000000007e+01
q_11_1_3 0
q_11_1_4 0
q_11_1_5 0
q_12_0_0 0
q_12_0_1 0
q_12_0_2 -4.2632564145606011e-14
q_12_0_3 7.1054273576010019e-15
q_12_0_4 166
q_12_0_5 0
q_12_1_0 0
q_12_1_1 166
q_12_1_2 8.3000000000000043e+01
q_12_1_3 0
q_12_1_4 0
q_12_1_5 0
q_13_0_0 0
q_13_0_1 0
q_13_0_2 0
q_13_0_3 0
q_13_0_4 20
q_13_0_5 0
q_13_1_0 0
q_13_1_1 20
q_13_1_2 1.0000000000000004e+01
q_13_1_3 0
q_13_1_4 0
q_13_1_5 0
q_14_0_0 0
q_14_0_1 0
q_14_0_2 0
q_14_0_3 0
q_14_0_4 30
q_14_0_5 0
q_14_1_0 0
q_14_1_1 60
q_14_1_2 0
q_14_1_3 60
q_14_1_4 0
q_14_1_5 0
q_15_0_0 0
q_15_0_1 0
q_15_0_2 0
q_15_0_3 0
q_15_0_4 4.5999999999999986e+01
q_15_0_5 0
q_15_1_0 0
q_15_1_1 9.2000000000000014e+01
q_15_1_2 0
q_15_1_3 92
q_15_1_4 0
q_15_1_5 0
y_0_0_0 0
y_0_0_1 1
y_0_0_2 1
y_0_0_3 1
y_0_0_4 1
y_0_0_5 0
y_0_1_0 0
y_0_1_1 1
y_0_1_2 1
y_0_1_3 1
y_0_1_4 0
y_0_1_5 0
y_1_0_0 0
y_1_0_1 1
y_1_0_2 0
y_1_0_3 1
y_1_0_4 1
y_1_0_5 0
y_1_1_0 0
y_1_1_1 0
y_1_1_2 0
y_1_1_3 0
y_1_1_4 0
y_1_1_5 0
y_2_0_0 0
y_2_0_1 0
y_2_0_2 0
y_2_0_3 0
y_2_0_4 0
y_2_0_5 0
y_2_1_0 0
y_2_1_1 1
y_2_1_2 0
y_2_1_3 1
y_2_1_4 0
y_2_1_5 0
y_3_0_0 0
y_3_0_1 1
y_3_0_2 0
y_3_0_3 1
y_3_0_4 1
y_3_0_5 0
y_3_1_0 0
y_3_1_1 0
y_3_1_2 0
y_3_1_3 0
y_3_1_4 0
y_3_1_5 0
y_4_0_0 0
y_4_0_1 1
y_4_0_2 0
y_4_0_3 1
y_4_0_4 1
y_4_0_5 0
y_4_1_0 0
y_4_1_1 0
y_4_1_2 0
y_4_1_3 0
y_4_1_4 0
y_4_1_5 0
y_5_0_0 0
y_5_0_1 3.3914672929772834e-14
y_5_0_2 1
y_5_0_3 0
y_5_0_4 -2.7755575615628914e-17
y_5_0_5 0
y_5_1_0 0
y_5_1_1 0
y_5_1_2 0
y_5_1_3 1
y_5_1_4 0
y_5_1_5 0
y_6_0_0 0
y_6_0_1 0
y_6_0_2 0
y_6_0_3 0
y_6_0_4 3.3306690738754696e-15
y_6_0_5 0
y_6_1_0 0
y_6_1_1 1
y_6_1_2 0
y_6_1_3 0.999999999999996
y_6_1_4 0
y_6_1_5 0
y_7_0_0 0
y_7_0_1 0
y_7_0_2 4.4408920985006262e-16
y_7_0_3 0
y_7_0_4 0
y_7_0_5 0
y_7_1_0 0
y_7_1_1 0
y_7_1_2 9.9999999999999956e-01
y_7_1_3 1
y_7_1_4 0
y_7_1_5 0
y_8_0_0 0
y_8_0_1 1
y_8_0_2 0
y_8_0_3 1
y_8_0_4 0
y_8_0_5 0
y_8_1_0 0
y_8_1_1 0
y_8_1_2 0
y_8_1_3 0
y_8_1_4 0
y_8_1_5 0
y_9_0_0 0
y_9_0_1 1
y_9_0_2 0
y_9_0_3 1
y_9_0_4 0
y_9_0_5 0
y_9_1_0 0
y_9_1_1 0
y_9_1_2 0
y_9_1_3 0
y_9_1_4 0
y_9_1_5 0
y_10_0_0 0
y_10_0_1 0
y_10_0_2 0
y_10_0_3 0
y_10_0_4 0
y_10_0_5 0
y_10_1_0 0
y_10_1_1 0
y_10_1_2 1
y_10_1_3 1
y_10_1_4 0
y_10_1_5 0
y_11_0_0 0
y_11_0_1 0
y_11_0_2 -2.2204460492503131e-16
y_11_0_3 0
y_11_0_4 1.0000000000000009e+00
y_11_0_5 0
y_11_1_0 0
y_11_1_1 1
y_11_1_2 1
y_11_1_3 0
y_11_1_4 0
y_11_1_5 0
y_12_0_0 0
y_12_0_1 0
y_12_0_2 -4.4408920985006262e-16
y_12_0_3 0
y_12_0_4 1
y_12_0_5 0
y_12_1_0 0
y_12_1_1 1
y_12_1_2 1
y_12_1_3 0
y_12_1_4 0
y_12_1_5 0
y_13_0_0 0
y_13_0_1 0
y_13_0_2 0
y_13_0_3 0
y_13_0_4 1
y_13_0_5 0
y_13_1_0 0
y_13_1_1 1
y_13_1_2 1
y_13_1_3 0
y_13_1_4 0
y_13_1_5 0
y_14_0_0 0
y_14_0_1 0
y_14_0_2 0
y_14_0_3 0
y_14_0_4 1
y_14_0_5 0
y_14_1_0 0
y_14_1_1 1
y_14_1_2 0
y_14_1_3 1
y_14_1_4 0
y_14_1_5 0
y_15_0_0 0
y_15_0_1 0
y_15_0_2 0
y_15_0_3 0
y_15_0_4 1
y_15_0_5 0
y_15_1_0 0
y_15_1_1 1.0000000000000002e+00
y_15_1_2 0
y_15_1_3 1
y_15_1_4 0
y_15_1_5 0
x_0_1_0_0 0
x_0_1_0_1 0
x_0_1_0_2 0
x_0_1_0_3 0
x_0_1_0_4 0
x_0_1_0_5 0
x_0_1_1_0 0
x_0_1_1_1 0
x_0_1_1_2 0
x_0_1_1_3 0
x_0_1_1_4 0
x_0_1_1_5 0
x_0_2_0_0 0
x_0_2_0_1 0
x_0_2_0_2 0
x_0_2_0_3 0
x_0_2_0_4 0
x_0_2_0_5 0
x_0_2_1_0 0
x_0_2_1_1 0
x_0_2_1_2 0
x_0_2_1_3 0
x_0_2_1_4 0
x_0_2_1_5 0
x_0_3_0_0 0
x_0_3_0_1 1
x_0_3_0_2 0
x_0_3_0_3 9.9999999999999956e-01
x_0_3_0_4 9.9999999999999956e-01
x_0_3_0_5 0
x_0_3_1_0 0
x_0_3_1_1 0
x_0_3_1_2 0
x_0_3_1_3 0
x_0_3_1_4 0
x_0_3_1_5 0
x_0_4_0_0 0
x_0_4_0_1 1
x_0_4_0_2 0
x_0_4_0_3 1.0000000000000004e+00
x_0_4_0_4 0
x_0_4_0_5 0
x_0_4_1_0 0
x_0_4_1_1 0
x_0_4_1_2 0
x_0_4_1_3 0
x_0_4_1_4 0
x_0_4_1_5 0
x_0_5_0_0 0
x_0_5_0_1 0
x_0_5_0_2 2
x_0_5_0_3 0
x_0_5_0_4 -5.5511151231257827e-17
x_0_5_0_5 0
x_0_5_1_0 0
x_0_5_1_1 0
x_0_5_1_2 0
x_0_5_1_3 1.0000000000000013e+00
x_0_5_1_4 0
x_0_5_1_5 0
x_0_6_0_0 0
x_0_6_0_1 0
x_0_6_0_2 0
x_0_6_0_3 0
x_0_6_0_4 0
x_0_6_0_5 0
x_0_6_1_0 0
x_0_6_1_1 0
x_0_6_1_2 0
x_0_6_1_3 0
x_0_6_1_4 0
x_0_6_1_5 0
x_0_7_0_0 0
x_0_7_0_1 0
x_0_7_0_2 8.8817841970012523e-16
x_0_7_0_3 0
x_0_7_0_4 0
x_0_7_0_5 0
x_0_7_1_0 0
x_0_7_1_1 0
x_0_7_1_2 1
x_0_7_1_3 0
x_0_7_1_4 0
x_0_7_1_5 0
x_0_8_0_0 0
x_0_8_0_1 0
x_0_8_0_2 0
x_0_8_0_3 0
x_0_8_0_4 0
x_0_8_0_5 0
x_0_8_1_0 0
x_0_8_1_1 0
x_0_8_1_2 0
x_0_8_1_3 0
x_0_8_1_4 0
x_0_8_1_5 0
x_0_9_0_0 0
x_0_9_0_1 0
x_0_9_0_2 0
x_0_9_0_3 0
x_0_9_0_4 0
x_0_9_0_5 0
x_0_9_1_0 0
x_0_9_1_1 0
x_0_9_1_2 0
x_0_9_1_3 0
x_0_9_1_4 0
x_0_9_1_5 0
x_0_10_0_0 0
x_0_10_0_1 0
x_0_10_0_2 0
x_0_10_0_3 0
x_0_10_0_4 0
x_0_10_0_5 0
x_0_10_1_0 0
x_0_10_1_1 0
x_0_10_1_2 0
x_0_10_1_3 0
x_0_10_1_4 0
x_0_10_1_5 0
x_0_11_0_0 0
x_0_11_0_1 0
x_0_11_0_2 -4.4408920985006262e-16
x_0_11_0_3 0
x_0_11_0_4 1.0000000000000004e+00
x_0_11_0_5 0
x_0_11_1_0 0
x_0_11_1_1 1
x_0_11_1_2 1
x_0_11_1_3 0
x_0_11_1_4 0
x_0_11_1_5 0
x_0_12_0_0 0
x_0_12_0_1 0
x_0_12_0_2 -4.4408920985006262e-16
x_0_12_0_3 0
x_0_12_0_4 2.2204460492503131e-16
x_0_12_0_5 0
x_0_12_1_0 0
x_0_12_1_1 0
x_0_12_1_2 0
x_0_12_1_3 0
x_0_12_1_4 0
x_0_12_1_5 0
x_0_13_0_0 0
x_0_13_0_1 0
x_0_13_0_2 0
x_0_13_0_3 0
x_0_13_0_4 0
x_0_13_0_5 0
x_0_13_1_0 0
x_0_13_1_1 0
x_0_13_1_2 0
x_0_13_1_3 0
x_0_13_1_4 0
x_0_13_1_5 0
x_0_14_0_0 0
x_0_14_0_1 0
x_0_14_0_2 0
x_0_14_0_3 0
x_0_14_0_4 0
x_0_14_0_5 0
x_0_14_1_0 0
x_0_14_1_1 1
x_0_14_1_2 0
x_0_14_1_3 9.9999999999999467e-01
x_0_14_1_4 0
x_0_14_1_5 0
x_0_15_0_0 0
x_0_15_0_1 0
x_0_15_0_2 0
x_0_15_0_3 0
x_0_15_0_4 0
x_0_15_0_5 0
x_0_15_1_0 0
x_0_15_1_1 0
x_0_15_1_2 0
x_0_15_1_3 3.9968028886505635e-15
x_0_15_1_4 0
x_0_15_1_5 0
x_1_2_0_0 0
x_1_2_0_1 0
x_1_2_0_2 0
x_1_2_0_3 0
x_1_2_0_4 0
x_1_2_0_5 0
x_1_2_1_0 0
x_1_2_1_1 0
x_1_2_1_2 0
x_1_2_1_3 0
x_1_2_1_4 0
x_1_2_1_5 0
x_1_3_0_0 0
x_1_3_0_1 0
x_1_3_0_2 0
x_1_3_0_3 0
x_1_3_0_4 0
x_1_3_0_5 0
x_1_3_1_0 0
x_1_3_1_1 0
x_1_3_1_2 0
x_1_3_1_3 0
x_1_3_1_4 0
x_1_3_1_5 0
x_1_4_0_0 0
x_1_4_0_1 0
x_1_4_0_2 0
x_1_4_0_3 0
x_1_4_0_4 1
x_1_4_0_5 0
x_1_4_1_0 0
x_1_4_1_1 0
x_1_4_1_2 0
x_1_4_1_3 0
x_1_4_1_4 0
x_1_4_1_5 0
x_1_5_0_0 0
x_1_5_0_1 0
x_1_5_0_2 0
x_1_5_0_3 0
x_1_5_0_4 0
x_1_5_0_5 0
x_1_5_1_0 0
x_1_5_1_1 0
x_1_5_1_2 0
x_1_5_1_3 0
x_1_5_1_4 0
x_1_5_1_5 0
x_1_6_0_0 0
x_1_6_0_1 0
x_1_6_0_2 0
x_1_6_0_3 0
x_1_6_0_4 3.3306690738754696e-16
x_1_6_0_5 0
x_1_6_1_0 0
x_1_6_1_1 0
x_1_6_1_2 0
x_1_6_1_3 0
x_1_6_1_4 0
x_1_6_1_5 0
x_1_7_0_0 0
x_1_7_0_1 0
x_1_7_0_2 0
x_1_7_0_3 0
x_1_7_0_4 0
x_1_7_0_5 0
x_1_7_1_0 0
x_1_7_1_1 0
x_1_7_1_2 0
x_1_7_1_3 0
x_1_7_1_4 0
x_1_7_1_5 0
x_1_8_0_0 0
x_1_8_0_1 1
x_1_8_0_2 0
x_1_8_0_3 1
x_1_8_0_4 0
x_1_8_0_5 0
x_1_8_1_0 0
x_1_8_1_1 0
x_1_8_1_2 0
x_1_8_1_3 0
x_1_8_1_4 0
x_1_8_1_5 0
x_1_9_0_0 0
x_1_9_0_1 1
x_1_9_0_2 0
x_1_9_0_3 1
x_1_9_0_4 0
x_1_9_0_5 0
x_1_9_1_0 0
x_1_9_1_1 0
x_1_9_1_2 0
x_1_9_1_3 0
x_1_9_1_4 0
x_1_9_1_5 0
x_1_10_0_0 0
x_1_10_0_1 0
x_1_10_0_2 0
x_1_10_0_3 0
x_1_10_0_4 0
x_1_10_0_5 0
x_1_10_1_0 0
x_1_10_1_1 0
x_1_10_1_2 0
x_1_10_1_3 0
x_1_10_1_4 0
x_1_10_1_5 0
x_1_11_0_0 0
x_1_11_0_1 0
x_1_11_0_2 0
x_1_11_0_3 0
x_1_11_0_4 0
x_1_11_0_5 0
x_1_11_1_0 0
x_1_11_1_1 0
x_1_11_1_2 0
x_1_11_1_3 0
x_1_11_1_4 0
x_1_11_1_5 0
x_1_12_0_0 0
x_1_12_0_1 0
x_1_12_0_2 0
x_1_12_0_3 0
x_1_12_0_4 0
x_1_12_0_5 0
x_1_12_1_0 0
x_1_12_1_1 0
x_1_12_1_2 0
x_1_12_1_3 0
x_1_12_1_4 0
x_1_12_1_5 0
x_1_13_0_0 0
x_1_13_0_1 0
x_1_13_0_2 0
x_1_13_0_3 0
x_1_13_0_4 0
x_1_13_0_5 0
x_1_13_1_0 0
x_1_13_1_1 0
x_1_13_1_2 0
x_1_13_1_3 0
x_1_13_1_4 0
x_1_13_1_5 0
x_1_14_0_0 0
x_1_14_0_1 0
x_1_14_0_2 0
x_1_14_0_3 0
x_1_14_0_4 0
x_1_14_0_5 0
x_1_14_1_0 0
x_1_14_1_1 0
x_1_14_1_2 0
x_1_14_1_3 0
x_1_14_1_4 0
x_1_14_1_5 0
x_1_15_0_0 0
x_1_15_0_1 0
x_1_15_0_2 0
x_1_15_0_3 0
x_1_15_0_4 9.9999999999999933e-01
x_1_15_0_5 0
x_1_15_1_0 0
x_1_15_1_1 0
x_1_15_1_2 0
x_1_15_1_3 0
x_1_15_1_4 0
x_1_15_1_5 0
x_2_3_0_0 0
x_2_3_0_1 0
x_2_3_0_2 0
x_2_3_0_3 0
x_2_3_0_4 0
x_2_3_0_5 0
x_2_3_1_0 0
x_2_3_1_1 0
x_2_3_1_2 0
x_2_3_1_3 0
x_2_3_1_4 0
x_2_3_1_5 0
x_2_4_0_0 0
x_2_4_0_1 0
x_2_4_0_2 0
x_2_4_0_3 0
x_2_4_0_4 0
x_2_4_0_5 0
x_2_4_1_0 0
x_2_4_1_1 0
x_2_4_1_2 0
x_2_4_1_3 0
x_2_4_1_4 0
x_2_4_1_5 0
x_2_5_0_0 0
x_2_5_0_1 0
x_2_5_0_2 0
x_2_5_0_3 0
x_2_5_0_4 0
x_2_5_0_5 0
x_2_5_1_0 0
x_2_5_1_1 0
x_2_5_1_2 0
x_2_5_1_3 0
x_2_5_1_4 0
x_2_5_1_5 0
x_2_6_0_0 0
x_2_6_0_1 0
x_2_6_0_2 0
x_2_6_0_3 0
x_2_6_0_4 0
x_2_6_0_5 0
x_2_6_1_0 0
x_2_6_1_1 1
x_2_6_1_2 0
x_2_6_1_3 0.999999999999996
x_2_6_1_4 0
x_2_6_1_5 0
x_2_7_0_0 0
x_2_7_0_1 0
x_2_7_0_2 0
x_2_7_0_3 0
x_2_7_0_4 0
x_2_7_0_5 0
x_2_7_1_0 0
x_2_7_1_1 0
x_2_7_1_2 0
x_2_7_1_3 0
x_2_7_1_4 0
x_2_7_1_5 0
x_2_8_0_0 0
x_2_8_0_1 0
x_2_8_0_2 0
x_2_8_0_3 0
x_2_8_0_4 0
x_2_8_0_5 0
x_2_8_1_0 0
x_2_8_1_1 0
x_2_8_1_2 0
x_2_8_1_3 0
x_2_8_1_4 0
x_2_8_1_5 0
x_2_9_0_0 0
x_2_9_0_1 0
x_2_9_0_2 0
x_2_9_0_3 0
x_2_9_0_4 0
x_2_9_0_5 0
x_2_9_1_0 0
x_2_9_1_1 0
x_2_9_1_2 0
x_2_9_1_3 0
x_2_9_1_4 0
x_2_9_1_5 0
x_2_10_0_0 0
x_2_10_0_1 0
x_2_10_0_2 0
x_2_10_0_3 0
x_2_10_0_4 0
x_2_10_0_5 0
x_2_10_1_0 0
x_2_10_1_1 0
x_2_10_1_2 0
x_2_10_1_3 0
x_2_10_1_4 0
x_2_10_1_5 0
x_2_11_0_0 0
x_2_11_0_1 0
x_2_11_0_2 0
x_2_11_0_3 0
x_2_11_0_4 0
x_2_11_0_5 0
x_2_11_1_0 0
x_2_11_1_1 0
x_2_11_1_2 0
x_2_11_1_3 0
x_2_11_1_4 0
x_2_11_1_5 0
x_2_12_0_0 0
x_2_12_0_1 0
x_2_12_0_2 0
x_2_12_0_3 0
x_2_12_0_4 0
x_2_12_0_5 0
x_2_12_1_0 0
x_2_12_1_1 0
x_2_12_1_2 0
x_2_12_1_3 0
x_2_12_1_4 0
x_2_12_1_5 0
x_2_13_0_0 0
x_2_13_0_1 0
x_2_13_0_2 0
x_2_13_0_3 0
x_2_13_0_4 0
x_2_13_0_5 0
x_2_13_1_0 0
x_2_13_1_1 0
x_2_13_1_2 0
x_2_13_1_3 0
x_2_13_1_4 0
x_2_13_1_5 0
x_2_14_0_0 0
x_2_14_0_1 0
x_2_14_0_2 0
x_2_14_0_3 0
x_2_14_0_4 -3.3306690738754696e-16
x_2_14_0_5 0
x_2_14_1_0 0
x_2_14_1_1 0
x_2_14_1_2 0
x_2_14_1_3 3.9968028886505635e-15
x_2_14_1_4 0
x_2_14_1_5 0
x_2_15_0_0 0
x_2_15_0_1 0
x_2_15_0_2 0
x_2_15_0_3 0
x_2_15_0_4 3.3306690738754696e-16
x_2_15_0_5 0
x_2_15_1_0 0
x_2_15_1_1 1.0000000000000002e+00
x_2_15_1_2 0
x_2_15_1_3 1
x_2_15_1_4 0
x_2_15_1_5 0
x_3_4_0_0 0
x_3_4_0_1 0
x_3_4_0_2 0
x_3_4_0_3 0
x_3_4_0_4 1
x_3_4_0_5 0
x_3_4_1_0 0
x_3_4_1_1 0
x_3_4_1_2 0
x_3_4_1_3 0
x_3_4_1_4 0
x_3_4_1_5 0
x_3_5_0_0 0
x_3_5_0_1 0
x_3_5_0_2 0
x_3_5_0_3 0
x_3_5_0_4 0
x_3_5_0_5 0
x_3_5_1_0 0
x_3_5_1_1 0
x_3_5_1_2 0
x_3_5_1_3 0
x_3_5_1_4 0
x_3_5_1_5 0
x_3_6_0_0 0
x_3_6_0_1 0
x_3_6_0_2 0
x_3_6_0_3 0
x_3_6_0_4 0
x_3_6_0_5 0
x_3_6_1_0 0
x_3_6_1_1 0
x_3_6_1_2 0
x_3_6_1_3 0
x_3_6_1_4 0
x_3_6_1_5 0
x_3_7_0_0 0
x_3_7_0_1 0
x_3_7_0_2 0
x_3_7_0_3 0
x_3_7_0_4 0
x_3_7_0_5 0
x_3_7_1_0 0
x_3_7_1_1 0
x_3_7_1_2 0
x_3_7_1_3 0
x_3_7_1_4 0
x_3_7_1_5 0
x_3_8_0_0 0
x_3_8_0_1 1
x_3_8_0_2 0
x_3_8_0_3 1.0000000000000004e+00
x_3_8_0_4 0
x_3_8_0_5 0
x_3_8_1_0 0
x_3_8_1_1 0
x_3_8_1_2 0
x_3_8_1_3 0
x_3_8_1_4 0
x_3_8_1_5 0
x_3_9_0_0 0
x_3_9_0_1 0
x_3_9_0_2 0
x_3_9_0_3 0
x_3_9_0_4 0
x_3_9_0_5 0
x_3_9_1_0 0
x_3_9_1_1 0
x_3_9_1_2 0
x_3_9_1_3 0
x_3_9_1_4 0
x_3_9_1_5 0
x_3_10_0_0 0
x_3_10_0_1 0
x_3_10_0_2 0
x_3_10_0_3 0
x_3_10_0_4 0
x_3_10_0_5 0
x_3_10_1_0 0
x_3_10_1_1 0
x_3_10_1_2 0
x_3_10_1_3 0
x_3_10_1_4 0
x_3_10_1_5 0
x_3_11_0_0 0
x_3_11_0_1 0
x_3_11_0_2 0
x_3_11_0_3 0
x_3_11_0_4 0
x_3_11_0_5 0
x_3_11_1_0 0
x_3_11_1_1 0
x_3_11_1_2 0
x_3_11_1_3 0
x_3_11_1_4 0
x_3_11_1_5 0
x_3_12_0_0 0
x_3_12_0_1 0
x_3_12_0_2 0
x_3_12_0_3 0
x_3_12_0_4 0
x_3_12_0_5 0
x_3_12_1_0 0
x_3_12_1_1 0
x_3_12_1_2 0
x_3_12_1_3 0
x_3_12_1_4 0
x_3_12_1_5 0
x_3_13_0_0 0
x_3_13_0_1 0
x_3_13_0_2 0
x_3_13_0_3 0
x_3_13_0_4 0
x_3_13_0_5 0
x_3_13_1_0 0
x_3_13_1_1 0
x_3_13_1_2 0
x_3_13_1_3 0
x_3_13_1_4 0
x_3_13_1_5 0
x_3_14_0_0 0
x_3_14_0_1 0
x_3_14_0_2 0
x_3_14_0_3 0
x_3_14_0_4 3.3306690738754696e-16
x_3_14_0_5 0
x_3_14_1_0 0
x_3_14_1_1 0
x_3_14_1_2 0
x_3_14_1_3 0
x_3_14_1_4 0
x_3_14_1_5 0
x_3_15_0_0 0
x_3_15_0_1 0
x_3_15_0_2 0
x_3_15_0_3 0
x_3_15_0_4 0
x_3_15_0_5 0
x_3_15_1_0 0
x_3_15_1_1 0
x_3_15_1_2 0
x_3_15_1_3 0
x_3_15_1_4 0
x_3_15_1_5 0
x_4_5_0_0 0
x_4_5_0_1 0
x_4_5_0_2 0
x_4_5_0_3 0
x_4_5_0_4 0
x_4_5_0_5 0
x_4_5_1_0 0
x_4_5_1_1 0
x_4_5_1_2 0
x_4_5_1_3 0
x_4_5_1_4 0
x_4_5_1_5 0
x_4_6_0_0 0
x_4_6_0_1 0
x_4_6_0_2 0
x_4_6_0_3 0
x_4_6_0_4 0
x_4_6_0_5 0
x_4_6_1_0 0
x_4_6_1_1 0
x_4_6_1_2 0
x_4_6_1_3 0
x_4_6_1_4 0
x_4_6_1_5 0
x_4_7_0_0 0
x_4_7_0_1 0
x_4_7_0_2 0
x_4_7_0_3 0
x_4_7_0_4 0
x_4_7_0_5 0
x_4_7_1_0 0
x_4_7_1_1 0
x_4_7_1_2 0
x_4_7_1_3 0
x_4_7_1_4 0
x_4_7_1_5 0
x_4_8_0_0 0
x_4_8_0_1 0
x_4_8_0_2 0
x_4_8_0_3 0
x_4_8_0_4 0
x_4_8_0_5 0
x_4_8_1_0 0
x_4_8_1_1 0
x_4_8_1_2 0
x_4_8_1_3 0
x_4_8_1_4 0
x_4_8_1_5 0
x_4_9_0_0 0
x_4_9_0_1 1
x_4_9_0_2 0
x_4_9_0_3 1
x_4_9_0_4 0
x_4_9_0_5 0
x_4_9_1_0 0
x_4_9_1_1 0
x_4_9_1_2 0
x_4_9_1_3 0
x_4_9_1_4 0
x_4_9_1_5 0
x_4_10_0_0 0
x_4_10_0_1 0
x_4_10_0_2 0
x_4_10_0_3 0
x_4_10_0_4 0
x_4_10_0_5 0
x_4_10_1_0 0
x_4_10_1_1 0
x_4_10_1_2 0
x_4_10_1_3 0
x_4_10_1_4 0
x_4_10_1_5 0
x_4_11_0_0 0
x_4_11_0_1 0
x_4_11_0_2 0
x_4_11_0_3 0
x_4_11_0_4 0
x_4_11_0_5 0
x_4_11_1_0 0
x_4_11_1_1 0
x_4_11_1_2 0
x_4_11_1_3 0
x_4_11_1_4 0
x_4_11_1_5 0
x_4_12_0_0 0
x_4_12_0_1 0
x_4_12_0_2 0
x_4_12_0_3 0
x_4_12_0_4 0
x_4_12_0_5 0
x_4_12_1_0 0
x_4_12_1_1 0
x_4_12_1_2 0
x_4_12_1_3 0
x_4_12_1_4 0
x_4_12_1_5 0
x_4_13_0_0 0
x_4_13_0_1 0
x_4_13_0_2 0
x_4_13_0_3 0
x_4_13_0_4 0
x_4_13_0_5 0
x_4_13_1_0 0
x_4_13_1_1 0
x_4_13_1_2 0
x_4_13_1_3 0
x_4_13_1_4 0
x_4_13_1_5 0
x_4_14_0_0 0
x_4_14_0_1 0
x_4_14_0_2 0
x_4_14_0_3 0
x_4_14_0_4 0
x_4_14_0_5 0
x_4_14_1_0 0
x_4_14_1_1 0
x_4_14_1_2 0
x_4_14_1_3 0
x_4_14_1_4 0
x_4_14_1_5 0
x_4_15_0_0 0
x_4_15_0_1 0
x_4_15_0_2 0
x_4_15_0_3 0
x_4_15_0_4 0
x_4_15_0_5 0
x_4_15_1_0 0
x_4_15_1_1 0
x_4_15_1_2 0
x_4_15_1_3 0
x_4_15_1_4 0
x_4_15_1_5 0
x_5_6_0_0 0
x_5_6_0_1 0
x_5_6_0_2 0
x_5_6_0_3 0
x_5_6_0_4 0
x_5_6_0_5 0
x_5_6_1_0 0
x_5_6_1_1 0
x_5_6_1_2 0
x_5_6_1_3 0
x_5_6_1_4 0
x_5_6_1_5 0
x_5_7_0_0 0
x_5_7_0_1 0
x_5_7_0_2 0
x_5_7_0_3 0
x_5_7_0_4 0
x_5_7_0_5 0
x_5_7_1_0 0
x_5_7_1_1 0
x_5_7_1_2 0
x_5_7_1_3 9.9999999999999867e-01
x_5_7_1_4 0
x_5_7_1_5 0
x_5_8_0_0 0
x_5_8_0_1 0
x_5_8_0_2 0
x_5_8_0_3 0
x_5_8_0_4 0
x_5_8_0_5 0
x_5_8_1_0 0
x_5_8_1_1 0
x_5_8_1_2 0
x_5_8_1_3 0
x_5_8_1_4 0
x_5_8_1_5 0
x_5_9_0_0 0
x_5_9_0_1 0
x_5_9_0_2 0
x_5_9_0_3 0
x_5_9_0_4 0
x_5_9_0_5 0
x_5_9_1_0 0
x_5_9_1_1 0
x_5_9_1_2 0
x_5_9_1_3 0
x_5_9_1_4 0
x_5_9_1_5 0
x_5_10_0_0 0
x_5_10_0_1 0
x_5_10_0_2 0
x_5_10_0_3 0
x_5_10_0_4 0
x_5_10_0_5 0
x_5_10_1_0 0
x_5_10_1_1 0
x_5_10_1_2 0
x_5_10_1_3 0
x_5_10_1_4 0
x_5_10_1_5 0
x_5_11_0_0 0
x_5_11_0_1 0
x_5_11_0_2 0
x_5_11_0_3 0
x_5_11_0_4 0
x_5_11_0_5 0
x_5_11_1_0 0
x_5_11_1_1 0
x_5_11_1_2 0
x_5_11_1_3 0
x_5_11_1_4 0
x_5_11_1_5 0
x_5_12_0_0 0
x_5_12_0_1 0
x_5_12_0_2 0
x_5_12_0_3 0
x_5_12_0_4 0
x_5_12_0_5 0
x_5_12_1_0 0
x_5_12_1_1 0
x_5_12_1_2 0
x_5_12_1_3 0
x_5_12_1_4 0
x_5_12_1_5 0
x_5_13_0_0 0
x_5_13_0_1 0
x_5_13_0_2 0
x_5_13_0_3 0
x_5_13_0_4 0
x_5_13_0_5 0
x_5_13_1_0 0
x_5_13_1_1 0
x_5_13_1_2 0
x_5_13_1_3 0
x_5_13_1_4 0
x_5_13_1_5 0
x_5_14_0_0 0
x_5_14_0_1 0
x_5_14_0_2 0
x_5_14_0_3 0
x_5_14_0_4 0
x_5_14_0_5 0
x_5_14_1_0 0
x_5_14_1_1 0
x_5_14_1_2 0
x_5_14_1_3 0
x_5_14_1_4 0
x_5_14_1_5 0
x_5_15_0_0 0
x_5_15_0_1 0
x_5_15_0_2 0
x_5_15_0_3 0
x_5_15_0_4 0
x_5_15_0_5 0
x_5_15_1_0 0
x_5_15_1_1 0
x_5_15_1_2 0
x_5_15_1_3 0
x_5_15_1_4 0
x_5_15_1_5 0
x_6_7_0_0 0
x_6_7_0_1 0
x_6_7_0_2 0
x_6_7_0_3 0
x_6_7_0_4 0
x_6_7_0_5 0
x_6_7_1_0 0
x_6_7_1_1 0
x_6_7_1_2 0
x_6_7_1_3 0
x_6_7_1_4 0
x_6_7_1_5 0
x_6_8_0_0 0
x_6_8_0_1 0
x_6_8_0_2 0
x_6_8_0_3 0
x_6_8_0_4 0
x_6_8_0_5 0
x_6_8_1_0 0
x_6_8_1_1 0
x_6_8_1_2 0
x_6_8_1_3 0
x_6_8_1_4 0
x_6_8_1_5 0
x_6_9_0_0 0
x_6_9_0_1 0
x_6_9_0_2 0
x_6_9_0_3 0
x_6_9_0_4 0
x_6_9_0_5 0
x_6_9_1_0 0
x_6_9_1_1 0
x_6_9_1_2 0
x_6_9_1_3 0
x_6_9_1_4 0
x_6_9_1_5 0
x_6_10_0_0 0
x_6_10_0_1 0
x_6_10_0_2 0
x_6_10_0_3 0
x_6_10_0_4 0
x_6_10_0_5 0
x_6_10_1_0 0
x_6_10_1_1 0
x_6_10_1_2 0
x_6_10_1_3 9.9999999999999623e-01
x_6_10_1_4 0
x_6_10_1_5 0
x_6_11_0_0 0
x_6_11_0_1 0
x_6_11_0_2 0
x_6_11_0_3 0
x_6_11_0_4 0
x_6_11_0_5 0
x_6_11_1_0 0
x_6_11_1_1 0
x_6_11_1_2 0
x_6_11_1_3 0
x_6_11_1_4 0
x_6_11_1_5 0
x_6_12_0_0 0
x_6_12_0_1 0
x_6_12_0_2 0
x_6_12_0_3 0
x_6_12_0_4 0
x_6_12_0_5 0
x_6_12_1_0 0
x_6_12_1_1 0
x_6_12_1_2 0
x_6_12_1_3 0
x_6_12_1_4 0
x_6_12_1_5 0
x_6_13_0_0 0
x_6_13_0_1 0
x_6_13_0_2 0
x_6_13_0_3 0
x_6_13_0_4 3.2196467714129540e-15
x_6_13_0_5 0
x_6_13_1_0 0
x_6_13_1_1 1
x_6_13_1_2 0
x_6_13_1_3 -4.4408920985006262e-16
x_6_13_1_4 0
x_6_13_1_5 0
x_6_14_0_0 0
x_6_14_0_1 0
x_6_14_0_2 0
x_6_14_0_3 0
x_6_14_0_4 3.3306690738754696e-15
x_6_14_0_5 0
x_6_14_1_0 0
x_6_14_1_1 0
x_6_14_1_2 0
x_6_14_1_3 0
x_6_14_1_4 0
x_6_14_1_5 0
x_6_15_0_0 0
x_6_15_0_1 0
x_6_15_0_2 0
x_6_15_0_3 0
x_6_15_0_4 0
x_6_15_0_5 0
x_6_15_1_0 0
x_6_15_1_1 0
x_6_15_1_2 0
x_6_15_1_3 0
x_6_15_1_4 0
x_6_15_1_5 0
x_7_8_0_0 0
x_7_8_0_1 0
x_7_8_0_2 0
x_7_8_0_3 0
x_7_8_0_4 0
x_7_8_0_5 0
x_7_8_1_0 0
x_7_8_1_1 0
x_7_8_1_2 0
x_7_8_1_3 0
x_7_8_1_4 0
x_7_8_1_5 0
x_7_9_0_0 0
x_7_9_0_1 0
x_7_9_0_2 0
x_7_9_0_3 0
x_7_9_0_4 0
x_7_9_0_5 0
x_7_9_1_0 0
x_7_9_1_1 0
x_7_9_1_2 0
x_7_9_1_3 0
x_7_9_1_4 0
x_7_9_1_5 0
x_7_10_0_0 0
x_7_10_0_1 0
x_7_10_0_2 0
x_7_10_0_3 0
x_7_10_0_4 0
x_7_10_0_5 0
x_7_10_1_0 0
x_7_10_1_1 0
x_7_10_1_2 9.9999999999999911e-01
x_7_10_1_3 1.0000000000000038e+00
x_7_10_1_4 0
x_7_10_1_5 0
x_7_11_0_0 0
x_7_11_0_1 0
x_7_11_0_2 0
x_7_11_0_3 0
x_7_11_0_4 0
x_7_11_0_5 0
x_7_11_1_0 0
x_7_11_1_1 0
x_7_11_1_2 0
x_7_11_1_3 0
x_7_11_1_4 0
x_7_11_1_5 0
x_7_12_0_0 0
x_7_12_0_1 0
x_7_12_0_2 0
x_7_12_0_3 0
x_7_12_0_4 0
x_7_12_0_5 0
x_7_12_1_0 0
x_7_12_1_1 0
x_7_12_1_2 0
x_7_12_1_3 0
x_7_12_1_4 0
x_7_12_1_5 0
x_7_13_0_0 0
x_7_13_0_1 0
x_7_13_0_2 0
x_7_13_0_3 0
x_7_13_0_4 0
x_7_13_0_5 0
x_7_13_1_0 0
x_7_13_1_1 0
x_7_13_1_2 0
x_7_13_1_3 0
x_7_13_1_4 0
x_7_13_1_5 0
x_7_14_0_0 0
x_7_14_0_1 0
x_7_14_0_2 0
x_7_14_0_3 0
x_7_14_0_4 0
x_7_14_0_5 0
x_7_14_1_0 0
x_7_14_1_1 0
x_7_14_1_2 0
x_7_14_1_3 5.5511151231257827e-16
x_7_14_1_4 0
x_7_14_1_5 0
x_7_15_0_0 0
x_7_15_0_1 0
x_7_15_0_2 0
x_7_15_0_3 0
x_7_15_0_4 0
x_7_15_0_5 0
x_7_15_1_0 0
x_7_15_1_1 0
x_7_15_1_2 0
x_7_15_1_3 0
x_7_15_1_4 0
x_7_15_1_5 0
x_8_9_0_0 0
x_8_9_0_1 0
x_8_9_0_2 0
x_8_9_0_3 0
x_8_9_0_4 0
x_8_9_0_5 0
x_8_9_1_0 0
x_8_9_1_1 0
x_8_9_1_2 0
x_8_9_1_3 0
x_8_9_1_4 0
x_8_9_1_5 0
x_8_10_0_0 0
x_8_10_0_1 0
x_8_10_0_2 0
x_8_10_0_3 0
x_8_10_0_4 0
x_8_10_0_5 0
x_8_10_1_0 0
x_8_10_1_1 0
x_8_10_1_2 0
x_8_10_1_3 0
x_8_10_1_4 0
x_8_10_1_5 0
x_8_11_0_0 0
x_8_11_0_1 0
x_8_11_0_2 0
x_8_11_0_3 0
x_8_11_0_4 0
x_8_11_0_5 0
x_8_11_1_0 0
x_8_11_1_1 0
x_8_11_1_2 0
x_8_11_1_3 0
x_8_11_1_4 0
x_8_11_1_5 0
x_8_12_0_0 0
x_8_12_0_1 0
x_8_12_0_2 0
x_8_12_0_3 0
x_8_12_0_4 0
x_8_12_0_5 0
x_8_12_1_0 0
x_8_12_1_1 0
x_8_12_1_2 0
x_8_12_1_3 0
x_8_12_1_4 0
x_8_12_1_5 0
x_8_13_0_0 0
x_8_13_0_1 0
x_8_13_0_2 0
x_8_13_0_3 0
x_8_13_0_4 0
x_8_13_0_5 0
x_8_13_1_0 0
x_8_13_1_1 0
x_8_13_1_2 0
x_8_13_1_3 0
x_8_13_1_4 0
x_8_13_1_5 0
x_8_14_0_0 0
x_8_14_0_1 0
x_8_14_0_2 0
x_8_14_0_3 0
x_8_14_0_4 0
x_8_14_0_5 0
x_8_14_1_0 0
x_8_14_1_1 0
x_8_14_1_2 0
x_8_14_1_3 0
x_8_14_1_4 0
x_8_14_1_5 0
x_8_15_0_0 0
x_8_15_0_1 0
x_8_15_0_2 0
x_8_15_0_3 0
x_8_15_0_4 0
x_8_15_0_5 0
x_8_15_1_0 0
x_8_15_1_1 0
x_8_15_1_2 0
x_8_15_1_3 0
x_8_15_1_4 0
x_8_15_1_5 0
x_9_10_0_0 0
x_9_10_0_1 0
x_9_10_0_2 0
x_9_10_0_3 0
x_9_10_0_4 0
x_9_10_0_5 0
x_9_10_1_0 0
x_9_10_1_1 0
x_9_10_1_2 0
x_9_10_1_3 0
x_9_10_1_4 0
x_9_10_1_5 0
x_9_11_0_0 0
x_9_11_0_1 0
x_9_11_0_2 0
x_9_11_0_3 0
x_9_11_0_4 0
x_9_11_0_5 0
x_9_11_1_0 0
x_9_11_1_1 0
x_9_11_1_2 0
x_9_11_1_3 0
x_9_11_1_4 0
x_9_11_1_5 0
x_9_12_0_0 0
x_9_12_0_1 0
x_9_12_0_2 0
x_9_12_0_3 0
x_9_12_0_4 0
x_9_12_0_5 0
x_9_12_1_0 0
x_9_12_1_1 0
x_9_12_1_2 0
x_9_12_1_3 0
x_9_12_1_4 0
x_9_12_1_5 0
x_9_13_0_0 0
x_9_13_0_1 0
x_9_13_0_2 0
x_9_13_0_3 0
x_9_13_0_4 0
x_9_13_0_5 0
x_9_13_1_0 0
x_9_13_1_1 0
x_9_13_1_2 0
x_9_13_1_3 0
x_9_13_1_4 0
x_9_13_1_5 0
x_9_14_0_0 0
x_9_14_0_1 0
x_9_14_0_2 0
x_9_14_0_3 0
x_9_14_0_4 0
x_9_14_0_5 0
x_9_14_1_0 0
x_9_14_1_1 0
x_9_14_1_2 0
x_9_14_1_3 0
x_9_14_1_4 0
x_9_14_1_5 0
x_9_15_0_0 0
x_9_15_0_1 0
x_9_15_0_2 0
x_9_15_0_3 0
x_9_15_0_4 0
x_9_15_0_5 0
x_9_15_1_0 0
x_9_15_1_1 0
x_9_15_1_2 0
x_9_15_1_3 0
x_9_15_1_4 0
x_9_15_1_5 0
x_10_11_0_0 0
x_10_11_0_1 0
x_10_11_0_2 0
x_10_11_0_3 0
x_10_11_0_4 -3.3306690738754696e-16
x_10_11_0_5 0
x_10_11_1_0 0
x_10_11_1_1 0
x_10_11_1_2 0
x_10_11_1_3 0
x_10_11_1_4 0
x_10_11_1_5 0
x_10_12_0_0 0
x_10_12_0_1 0
x_10_12_0_2 0
x_10_12_0_3 0
x_10_12_0_4 0
x_10_12_0_5 0
x_10_12_1_0 0
x_10_12_1_1 0
x_10_12_1_2 5.5511151231257827e-16
x_10_12_1_3 0
x_10_12_1_4 0
x_10_12_1_5 0
x_10_13_0_0 0
x_10_13_0_1 0
x_10_13_0_2 0
x_10_13_0_3 0
x_10_13_0_4 0
x_10_13_0_5 0
x_10_13_1_0 0
x_10_13_1_1 0
x_10_13_1_2 1
x_10_13_1_3 0
x_10_13_1_4 0
x_10_13_1_5 0
x_10_14_0_0 0
x_10_14_0_1 0
x_10_14_0_2 0
x_10_14_0_3 0
x_10_14_0_4 3.3306690738754696e-16
x_10_14_0_5 0
x_10_14_1_0 0
x_10_14_1_1 0
x_10_14_1_2 0
x_10_14_1_3 0
x_10_14_1_4 0
x_10_14_1_5 0
x_10_15_0_0 0
x_10_15_0_1 0
x_10_15_0_2 0
x_10_15_0_3 0
x_10_15_0_4 0
x_10_15_0_5 0
x_10_15_1_0 0
x_10_15_1_1 0
x_10_15_1_2 0
x_10_15_1_3 0
x_10_15_1_4 0
x_10_15_1_5 0
x_11_12_0_0 0
x_11_12_0_1 0
x_11_12_0_2 -4.4408920985006262e-16
x_11_12_0_3 0
x_11_12_0_4 1.0000000000000009e+00
x_11_12_0_5 0
x_11_12_1_0 0
x_11_12_1_1 1
x_11_12_1_2 1
x_11_12_1_3 0
x_11_12_1_4 0
x_11_12_1_5 0
x_11_13_0_0 0
x_11_13_0_1 0
x_11_13_0_2 0
x_11_13_0_3 0
x_11_13_0_4 8.8817841970012523e-16
x_11_13_0_5 0
x_11_13_1_0 0
x_11_13_1_1 0
x_11_13_1_2 0
x_11_13_1_3 0
x_11_13_1_4 0
x_11_13_1_5 0
x_11_14_0_0 0
x_11_14_0_1 0
x_11_14_0_2 0
x_11_14_0_3 0
x_11_14_0_4 0
x_11_14_0_5 0
x_11_14_1_0 0
x_11_14_1_1 0
x_11_14_1_2 0
x_11_14_1_3 0
x_11_14_1_4 0
x_11_14_1_5 0
x_11_15_0_0 0
x_11_15_0_1 0
x_11_15_0_2 0
x_11_15_0_3 0
x_11_15_0_4 0
x_11_15_0_5 0
x_11_15_1_0 0
x_11_15_1_1 0
x_11_15_1_2 0
x_11_15_1_3 0
x_11_15_1_4 0
x_11_15_1_5 0
x_12_13_0_0 0
x_12_13_0_1 0
x_12_13_0_2 0
x_12_13_0_3 0
x_12_13_0_4 9.9999999999999911e-01
x_12_13_0_5 0
x_12_13_1_0 0
x_12_13_1_1 1
x_12_13_1_2 1
x_12_13_1_3 0
x_12_13_1_4 0
x_12_13_1_5 0
x_12_14_0_0 0
x_12_14_0_1 0
x_12_14_0_2 0
x_12_14_0_3 0
x_12_14_0_4 0
x_12_14_0_5 0
x_12_14_1_0 0
x_12_14_1_1 0
x_12_14_1_2 0
x_12_14_1_3 0
x_12_14_1_4 0
x_12_14_1_5 0
x_12_15_0_0 0
x_12_15_0_1 0
x_12_15_0_2 0
x_12_15_0_3 0
x_12_15_0_4 0
x_12_15_0_5 0
x_12_15_1_0 0
x_12_15_1_1 0
x_12_15_1_2 0
x_12_15_1_3 0
x_12_15_1_4 0
x_12_15_1_5 0
x_13_14_0_0 0
x_13_14_0_1 0
x_13_14_0_2 0
x_13_14_0_3 0
x_13_14_0_4 9.9999999999999634e-01
x_13_14_0_5 0
x_13_14_1_0 0
x_13_14_1_1 0
x_13_14_1_2 0
x_13_14_1_3 0
x_13_14_1_4 0
x_13_14_1_5 0
x_13_15_0_0 0
x_13_15_0_1 0
x_13_15_0_2 0
x_13_15_0_3 0
x_13_15_0_4 0
x_13_15_0_5 0
x_13_15_1_0 0
x_13_15_1_1 0
x_13_15_1_2 0
x_13_15_1_3 0
x_13_15_1_4 0
x_13_15_1_5 0
x_14_15_0_0 0
x_14_15_0_1 0
x_14_15_0_2 0
x_14_15_0_3 0
x_14_15_0_4 1
x_14_15_0_5 0
x_14_15_1_0 0
x_14_15_1_1 1
x_14_15_1_2 0
x_14_15_1_3 0.999999999999996
x_14_15_1_4 0
x_14_15_1_5 0
